50
16800

188 337
429 432
512 779
397 778
732 511
20 890
297 31
274 148
908 148
995 191
993 480
899 799
735 796
162 755
119 455
302 63
455 488
82 384
265 205
58 538
804 973
487 859
552 545
919 383
389 234
765 115
111 877
886 721
282 155
186 515
739 88
674 682
216 374
677 206
723 374
341 241
418 269
239 553
79 407
284 192
304 326
648 419
622 389
263 806
364 574
418 666
673 16
218 555
744 316
253 992
